T = -4998;
S_i = [90, 34, 52, 97, 14, -18, -27, -24, -92, 1, 17, 86, -93, 21, 79, -73, -54, 0, -99, 5, 21, 34, 83, -23, 62, 52, 24, -4, -93, -38, 74, 75, -15, -84, 70, 96, 39, 46, 92, -18, -5, 36, 20, 9, -64, 90, 8, -64, -82, 99, -34, -74, -51, 56, 100, 19, 86, -45, 64, -72, -73, -2, 14, 20, 64, 97, 45, -13, -58, -96, 5, -38, -17, 79, 87, -54, 1, 69, -79, 67, 52, -5, 31, -91, 78, -83, 53, 97, 32, 100, -62, 6, -20, 47, -24, -28, -51, -85, -8, -77];